% Logging successfully configured
%%%mzn-stat: initTime=0.004001163
%%%mzn-stat: objective=759
%%%mzn-stat: nodes=93396
%%%mzn-stat: restarts=0
%%%mzn-stat: peakDepth=187
%%%mzn-stat: solveTime=11.829910693
%%%mzn-stat: variables=475
%%%mzn-stat: propagators=296
%%%mzn-stat: failures=85268
%%%mzn-stat: propagations=1206216
%%%mzn-stat: nogoods=85268
%%%mzn-stat: numAtomicConstraintsPropagated=0
%%%mzn-stat: allDifferentNumber1TotalHallSetSize=3522840
%%%mzn-stat: allDifferentNumber1NumberOfConflicts=85178
%%%mzn-stat: allDifferentNumber1MaxHallSetSize=49
%%%mzn-stat: allDifferentNumber1PropagationsTotal=276402
%%%mzn-stat: allDifferentNumber1PropagationsThatFoundConflict=85178
%%%mzn-stat: circuitNumber2PropagationsThatFoundConflict=25
%%%mzn-stat: circuitNumber2TotalFixedEdgesAtConflict=664
%%%mzn-stat: circuitNumber2NumberOfConflicts=25
%%%mzn-stat: circuitNumber2PropagationsThatPruned=41600
%%%mzn-stat: circuitNumber2PropagationsTotal=110839
%%%mzn-stat: AverageConflictSize=17.951200919453957
%%%mzn-stat: NumUnitNogoodsLearned=0
%%%mzn-stat: AverageLearnedNogoodLength=9.843481728198151
%%%mzn-stat: AverageBacktrackAmount=0
%%%mzn-stat: AverageLbd=8.904465919219403
%%%mzn-stat: 2AutonomousSearchNumBackupCalled=166
%%%mzn-stat: 2AutonomousSearchNumPredicatesRemoved=0
%%%mzn-stat: 2AutonomousSearchNumCalls=167
%%%mzn-stat: 2AutonomousSearchNumPredicatesAdded=1897
%%%mzn-stat: 2AutonomousSearchAverageSizeOfHeap=11.359281437125748
%%%mzn-stat: 2AutonomousSearchNumAssignedPredicatesEncountered=1897
%%%mzn-stat-end
maxleg = 759;
succ = array1d(1..50,[26, 15, 9, 10, 50, 13, 8, 35, 16, 23, 17, 18, 41, 29, 40, 47, 12, 4, 42, 46, 25, 38, 32, 30, 22, 36, 44, 19, 49, 45, 7, 1, 14, 39, 21, 31, 43, 27, 3, 5, 33, 24, 28, 48, 34, 2, 11, 6, 20, 37]);
% time elapsed: 12.13 s
----------
%%%mzn-stat: initTime=0.004001163
%%%mzn-stat: objective=684
%%%mzn-stat: nodes=93757
%%%mzn-stat: restarts=0
%%%mzn-stat: peakDepth=187
%%%mzn-stat: solveTime=11.843821985
%%%mzn-stat: variables=475
%%%mzn-stat: propagators=296
%%%mzn-stat: failures=85351
%%%mzn-stat: propagations=1210376
%%%mzn-stat: nogoods=85351
%%%mzn-stat: numAtomicConstraintsPropagated=0
%%%mzn-stat: allDifferentNumber1TotalHallSetSize=3523379
%%%mzn-stat: allDifferentNumber1NumberOfConflicts=85252
%%%mzn-stat: allDifferentNumber1MaxHallSetSize=49
%%%mzn-stat: allDifferentNumber1PropagationsTotal=276842
%%%mzn-stat: allDifferentNumber1PropagationsThatFoundConflict=85252
%%%mzn-stat: circuitNumber2PropagationsThatFoundConflict=29
%%%mzn-stat: circuitNumber2TotalFixedEdgesAtConflict=821
%%%mzn-stat: circuitNumber2NumberOfConflicts=29
%%%mzn-stat: circuitNumber2PropagationsThatPruned=41680
%%%mzn-stat: circuitNumber2PropagationsTotal=111116
%%%mzn-stat: AverageConflictSize=17.9419573291467
%%%mzn-stat: NumUnitNogoodsLearned=0
%%%mzn-stat: AverageLearnedNogoodLength=9.84405572283863
%%%mzn-stat: AverageBacktrackAmount=0
%%%mzn-stat: AverageLbd=8.902695926234022
%%%mzn-stat: 2AutonomousSearchNumBackupCalled=320
%%%mzn-stat: 2AutonomousSearchNumPredicatesRemoved=0
%%%mzn-stat: 2AutonomousSearchNumCalls=322
%%%mzn-stat: 2AutonomousSearchNumPredicatesAdded=2982
%%%mzn-stat: 2AutonomousSearchAverageSizeOfHeap=12.273291925465838
%%%mzn-stat: 2AutonomousSearchNumAssignedPredicatesEncountered=3952
%%%mzn-stat-end
maxleg = 684;
succ = array1d(1..50,[26, 15, 9, 10, 50, 13, 8, 35, 16, 23, 17, 33, 31, 29, 40, 47, 12, 4, 42, 46, 25, 36, 32, 30, 22, 38, 6, 19, 49, 45, 7, 1, 41, 39, 21, 48, 43, 27, 3, 5, 18, 24, 28, 14, 34, 2, 11, 44, 20, 37]);
% time elapsed: 12.15 s
----------
==========
% time elapsed: 12.91 s
%%%mzn-stat: initTime=0.004001163
%%%mzn-stat: objective=684
%%%mzn-stat: nodes=100029
%%%mzn-stat: restarts=0
%%%mzn-stat: peakDepth=187
%%%mzn-stat: solveTime=12.607767378
%%%mzn-stat: variables=475
%%%mzn-stat: propagators=296
%%%mzn-stat: failures=89952
%%%mzn-stat: propagations=1322679
%%%mzn-stat: nogoods=89952
%%%mzn-stat: numAtomicConstraintsPropagated=0
%%%mzn-stat: allDifferentNumber1TotalHallSetSize=3657161
%%%mzn-stat: allDifferentNumber1NumberOfConflicts=89726
%%%mzn-stat: allDifferentNumber1MaxHallSetSize=49
%%%mzn-stat: allDifferentNumber1PropagationsTotal=294078
%%%mzn-stat: allDifferentNumber1PropagationsThatFoundConflict=89726
%%%mzn-stat: circuitNumber2PropagationsThatFoundConflict=45
%%%mzn-stat: circuitNumber2TotalFixedEdgesAtConflict=1130
%%%mzn-stat: circuitNumber2NumberOfConflicts=45
%%%mzn-stat: circuitNumber2PropagationsThatPruned=44679
%%%mzn-stat: circuitNumber2PropagationsTotal=119660
%%%mzn-stat: AverageConflictSize=17.935009782995376
%%%mzn-stat: NumUnitNogoodsLearned=1
%%%mzn-stat: AverageLearnedNogoodLength=10.051038331554606
%%%mzn-stat: AverageBacktrackAmount=0
%%%mzn-stat: AverageLbd=8.807230522945572
%%%mzn-stat: 2AutonomousSearchNumBackupCalled=320
%%%mzn-stat: 2AutonomousSearchNumPredicatesRemoved=0
%%%mzn-stat: 2AutonomousSearchNumCalls=322
%%%mzn-stat: 2AutonomousSearchNumPredicatesAdded=5185
%%%mzn-stat: 2AutonomousSearchAverageSizeOfHeap=12.273291925465838
%%%mzn-stat: 2AutonomousSearchNumAssignedPredicatesEncountered=3952
%%%mzn-stat-end
